100
32
21
7
28
1
18
16
22
29
5
28
10
9
3
16
1
2
2
1
18
2
8
1
1
2
3
17
13
2
20
1
1
20
1
3
1
19
1
2
2
4
2
2
1
1
1
3
2
1
18
1
1
5
2
1
1
5
2
1
19
3
1
1
1
2
2
1
1
17
1
3
2
2
18
1
1
1
5
1
1
17
1
4
1
1
1
1
2
1
3
2
3
1
1
1
2
2
1
1
1
1